NAME: cum30.tsp
TYPE: TSP
COMMENT: User-generated TSP file
DIMENSION: 30
EDGE_WEIGHT_TYPE: EUC_2D
NODE_COORD_SECTION
1 14.0 5.0
2 28.0 7.0
3 11.0 3.0
4 13.0 2.0
5 19.0 29.0
6 29.0 18.0
7 30.0 1.0
8 11.0 26.0
9 15.0 23.0
10 4.0 22.0
11 24.0 23.0
12 20.0 23.0
13 19.0 5.0
14 4.0 6.0
15 14.0 24.0
16 25.0 22.0
17 1.0 7.0
18 5.0 4.0
19 24.0 11.0
20 4.0 16.0
21 20.0 30.0
22 19.0 22.0
23 15.0 16.0
24 10.0 7.0
25 15.0 18.0
26 23.0 8.0
27 14.0 17.0
28 11.0 1.0
29 15.0 13.0
30 13.0 3.0
EOF





